results/res_prop_muc/res_Cimatti_mathsat_cores/QF_LRA/tgc_io-safe-2.smt.smt2.res
unsat
( c17
  c20
  c23
  c261
  c265
  c269
  c271
  c276
  c28
  c294
  c295
  c312
  c322
  c330
  c335
  c4
  c46
  c47
  c495
  c496
  c498
  c499
  c5
  c68
  c77
  c82
  c83
  c98 )
